c WARNING: for repeatability, setting FPU to use double precision
d VARIABLES            138690       
d CONSTRAINTS          504520       
c ============================[ Problem Statistics ]=============================
c |                                                                             |
c |  Number of variables:        138690                                         |
c |  Number of clauses:          504520                                         |
c |  Parse time:                   0.09 s                                       |
c |                                                                             |
c ============================[ Search Statistics ]==============================
c | Conflicts |          ORIGINAL         |          LEARNT          | Progress |
c |           |    Vars  Clauses Literals |    Limit  Clauses Lit/Cl |          |
c ===============================================================================
c |       100 |  109114   428094  1075249 |   156967      100     82 | 21.325 % |
c |       250 |  109114   428094  1075249 |   172664      250     39 | 21.325 % |
c |       475 |  109114   428094  1075249 |   189931      475     34 | 21.325 % |
c |       812 |  109114   428094  1075249 |   208924      812     26 | 21.325 % |
c |      1318 |  109114   428094  1075249 |   229816     1318    102 | 21.325 % |
c |      2077 |  109114   428094  1075249 |   252798     2077     73 | 21.325 % |
c |      3216 |  109114   428094  1075249 |   278078     3216     84 | 21.325 % |
c |      4924 |  109114   428094  1075249 |   305885     4924     68 | 21.325 % |
c |      7486 |  109114   428094  1075249 |   336474     7486     59 | 21.325 % |
c |     11330 |  109114   428094  1075249 |   370121    11330     71 | 21.325 % |
c |     17096 |  109114   428094  1075249 |   407134    17096     74 | 21.325 % |
c |     25745 |  109114   428094  1075249 |   447847    25745     96 | 21.325 % |
c |     38719 |  109114   428094  1075249 |   492632    38719    105 | 21.325 % |
c |     58180 |  109114   428094  1075249 |   541895    58180    112 | 21.325 % |
c |     87372 |  109114   428094  1075249 |   596084    87372    124 | 21.325 % |
c ===============================================================================
c restarts              : 325
c conflicts             : 122974         (2437 /sec)
c decisions             : 971257         (0.00 % random) (19247 /sec)
c propagations          : 288413437      (5715327 /sec)
c conflict literals     : 16634415       (11.78 % deleted)
d RESTARTS             325
d FAILURES             122974       
d NODES                971257       
d BACKTRACKS           971257       
d PROPAGATIONS         288413437    
d NOGOODSIZE           135.27 
d MEMORY               121.00 
d TIME                 50.4632 

s SATISFIABLE
